NAME: PointSet_Angle_20_8
TYPE: TSP
COMMENT: Points chosen discrete uniformly at random out of ${0, \ldots, 500}^2$.
DIMENSION: 20
EDGE_WEIGHT_TYPE: EUC_2D
NODE_COORD_SECTION
1 51 27
2 219 485
3 117 287
4 430 61
5 278 205
6 418 229
7 464 213
8 222 431
9 199 18
10 240 333
11 66 355
12 143 223
13 486 364
14 313 488
15 256 334
16 117 307
17 362 82
18 292 225
19 115 221
20 286 393
EOF
